g3 1 1 0	# problem unknown
 2 0 14 0 0 	# vars, constraints, objectives, ranges, eqns
 0 13 0 0 0 0	# nonlinear constrs, objs; ccons: lin, nonlin, nd, nzlb
 0 0	# network constraints: nonlinear, linear
 0 2 0 	# nonlinear vars in constraints, objectives, both
 0 0 0 1	# linear network variables; functions; arith, flags
 0 0 0 0 0 	# discrete variables: binary, integer, nonlinear (b,c,o)
 0 20 	# nonzeros in Jacobian, obj. gradient
 0 0	# max name lengths: constraints, variables
 0 0 0 0 0	# common exprs: b,c,o,c1,o1
O0 0
o0
o54
6
o43
v0
o2
n3
o43
v1
o2
n3.043
o43
o0
o16
o44
o2
n-1.062478
v1
n1
o2
n5.874
o43
o0
o16
o44
o2
n-3.344237
v1
n1
o2
n9.337
o43
o0
o16
o44
o2
n-5.363757
v1
n1
o2
n7.922
o43
o0
o16
o44
o2
n-11.762957
v1
n1
n-4.970583
O1 0
o5
v0
n-1.0
O2 0
o16
o5
v0
n-2.0
O3 0
o0
o54
5
o2
n3.0
o5
v1
n-1.0
o2
o2
n3.233120554
o5
o0
o16
o44
o2
n-1.062478
v1
n1.0
n-1.0
o44
o2
n-1.062478
v1
o2
o2
n19.644048138
o5
o0
o16
o44
o2
n-3.344237
v1
n1.0
n-1.0
o44
o2
n-3.344237
v1
o2
o2
n93.186145354
o5
o0
o16
o44
o2
n-11.762957
v1
n1.0
n-1.0
o44
o2
n-11.762957
v1
o2
o2
n50.081399108999996
o5
o0
o16
o44
o2
n-5.363757
v1
n1.0
n-1.0
o44
o2
n-5.363757
v1
n4.29352
O4 0
o54
9
o2
n-3.0
o5
v1
n-2.0
o2
o2
n-3.435119459972812
o5
o0
o16
o44
o2
n-1.062478
v1
n1.0
n-1.0
o44
o2
n-1.062478
v1
o2
o2
n-3.435119459972812
o5
o0
o16
o44
o2
n-1.062478
v1
n1.0
n-2.0
o44
o2
n-2.124956
v1
o2
o2
n-65.6943526128807
o5
o0
o16
o44
o2
n-3.344237
v1
n1.0
n-1.0
o44
o2
n-3.344237
v1
o2
o2
n-65.6943526128807
o5
o0
o16
o44
o2
n-3.344237
v1
n1.0
n-2.0
o44
o2
n-6.688474
v1
o2
o2
n-268.62445504069245
o5
o0
o16
o44
o2
n-5.363757
v1
n1.0
n-1.0
o44
o2
n-5.363757
v1
o2
o2
n-268.62445504069245
o5
o0
o16
o44
o2
n-5.363757
v1
n1.0
n-2.0
o44
o2
n-10.727514
v1
o2
o2
n-1096.1446207948518
o5
o0
o16
o44
o2
n-11.762957
v1
n1.0
n-1.0
o44
o2
n-11.762957
v1
o2
o2
n-1096.1446207948518
o5
o0
o16
o44
o2
n-11.762957
v1
n1.0
n-2.0
o44
o2
n-23.525914
v1
O5 0
o54
18
o2
o2
n0.042910051
o5
v0
n4
v1
o2
o2
n1.7313671
v0
o5
v1
n0.33
o2
o2
n-2.4516524
v0
o5
v1
n0.8
o2
o2
n0.34157466
o5
v0
n2
o5
v1
n0.43
o2
o2
n-0.46047898
o5
v0
n2
o5
v1
n0.9
o2
o2
o2
n-0.66847295
v0
o5
v1
n2.46
o44
o2
n-1
v0
o2
o2
o2
n0.20889705
o5
v0
n3
o5
v1
n2.09
o44
o2
n-1
v0
o2
o2
o2
n0.19421381
o5
v0
n6
o5
v1
n0.88
o44
o2
n-1
v0
o2
o2
o2
n-0.22917851
o5
v0
n6
o5
v1
n1.09
o44
o2
n-1
v0
o2
o2
o2
n-0.60405866
o5
v0
n2
o5
v1
n3.25
o44
o16
o5
v0
n2
o2
o2
o2
n0.066680654
o5
v0
n3
o5
v1
n4.62
o44
o16
o5
v0
n2
o2
o2
o2
n0.017534618
v0
o5
v1
n0.76
o44
o0
o2
n-0.963
o5
o0
v0
n-1.283
n2
o2
n-2.33
o5
o0
v1
n-0.684
n2
o2
o2
o2
n0.33874242
v0
o5
v1
n2.5
o44
o0
o2
n-1.977
o5
o0
v0
n-0.6936
n2
o2
n-3.47
o5
o0
v1
n-0.829
n2
o2
o2
o2
n0.22228777
v0
o5
v1
n2.75
o44
o0
o2
n-1.917
o5
o0
v0
n-0.788
n2
o2
n-3.15
o5
o0
v1
n-1.419
n2
o2
o2
o2
n-0.23219062
o5
v0
n2
o5
v1
n3.05
o44
o0
o2
n-2.307
o5
o0
v0
n-0.473
n2
o2
n-3.19
o5
o0
v1
n-0.817
n2
o2
o2
o2
n-0.09220694
o5
v0
n2
o5
v1
n2.55
o44
o0
o2
n-2.546
o5
o0
v0
n-0.8577
n2
o2
n-0.92
o5
o0
v1
n-1.5
n2
o2
o2
o2
n-0.47575718
o5
v0
n4
o5
v1
n8.4
o44
o0
o2
n-3.28
o5
o0
v0
n-0.271
n2
o2
n-18.8
o5
o0
v1
n-1.426
n2
o2
o2
o2
n-0.017486824
v0
o5
v1
n6.75
o44
o0
o2
n-14.6
o5
o0
v0
n-0.948
n2
o2
n-547.8
o5
o0
v1
n-1.093
n2
O6 0
o54
31
o2
n1.7313671
o5
v1
n0.33
o2
n-2.4516524
o5
v1
n0.8
o2
o2
n0.33874242
o5
v1
n2.5
o44
o0
o2
n-3.47
o5
o0
v1
n-0.829
n2.0
o2
n-1.977
o5
o0
v0
n-0.6936
n2.0
o2
o2
n0.22228777
o5
v1
n2.75
o44
o0
o2
n-3.15
o5
o0
v1
n-1.419
n2.0
o2
n-1.917
o5
o0
v0
n-0.788
n2.0
o2
o2
n0.017534618
o5
v1
n0.76
o44
o0
o2
n-2.33
o5
o0
v1
n-0.684
n2.0
o2
n-0.963
o5
o0
v0
n-1.283
n2.0
o2
o2
n0.68314932
v0
o5
v1
n0.43
o2
o2
n0.171640204
v1
o5
v0
n3.0
o2
o2
n-0.66847295
o5
v1
n2.46
o44
o2
n-1.0
v0
o2
o2
n-0.92095796
v0
o5
v1
n0.9
o2
o2
n-0.017486824
o5
v1
n6.75
o44
o0
o2
n-547.8
o5
o0
v1
n-1.093
n2.0
o2
n-14.6
o5
o0
v0
n-0.948
n2.0
o2
o2
o2
n0.66847295
v0
o5
v1
n2.46
o44
o2
n-1.0
v0
o2
o2
o2
n0.20004196200000002
o5
v0
n2.0
o5
v1
n4.62
o44
o16
o5
v0
n2.0
o2
o2
o2
n0.22917851
o5
v0
n6.0
o5
v1
n1.09
o44
o2
n-1.0
v0
o2
o2
o2
n1.16528286
o5
v0
n5.0
o5
v1
n0.88
o44
o2
n-1.0
v0
o2
o2
o2
n1.20811732
o5
v0
n3.0
o5
v1
n3.25
o44
o16
o5
v0
n2.0
o2
o2
o2
n0.62669115
o5
v0
n2.0
o5
v1
n2.09
o44
o2
n-1.0
v0
o2
o2
o2
n-0.133361308
o5
v0
n4.0
o5
v1
n4.62
o44
o16
o5
v0
n2.0
o2
o2
o2
n-1.90302872
o5
v0
n3.0
o5
v1
n8.4
o44
o0
o2
n-18.8
o5
o0
v1
n-1.426
n2.0
o2
n-3.28
o5
o0
v0
n-0.271
n2.0
o2
o2
o2
n-1.20811732
v0
o5
v1
n3.25
o44
o16
o5
v0
n2.0
o2
o2
o2
n-0.19421381
o5
v0
n6.0
o5
v1
n0.88
o44
o2
n-1.0
v0
o2
o2
o2
n-1.37507106
o5
v0
n5.0
o5
v1
n1.09
o44
o2
n-1.0
v0
o2
o2
o2
n-0.18441388
v0
o5
v1
n2.55
o44
o0
o2
n-2.546
o5
o0
v0
n-0.8577
n2.0
o2
n-0.92
o5
o0
v1
n-1.5
n2.0
o2
o2
o2
n-0.20889705
o5
v0
n3.0
o5
v1
n2.09
o44
o2
n-1.0
v0
o2
o2
o2
n-0.46438124
v0
o5
v1
n3.05
o44
o0
o2
n-2.307
o5
o0
v0
n-0.473
n2.0
o2
n-3.19
o5
o0
v1
n-0.817
n2.0
o2
o2
o2
o2
n0.33874242
v0
o5
v1
n2.5
o0
o2
n-3.954
v0
n2.7424944
o44
o0
o2
n-3.47
o5
o0
v1
n-0.829
n2.0
o2
n-1.977
o5
o0
v0
n-0.6936
n2.0
o2
o2
o2
o2
n0.22228777
v0
o5
v1
n2.75
o0
o2
n-3.834
v0
n3.021192
o44
o0
o2
n-3.15
o5
o0
v1
n-1.419
n2.0
o2
n-1.917
o5
o0
v0
n-0.788
n2.0
o2
o2
o2
o2
n0.017534618
v0
o5
v1
n0.76
o0
o2
n-1.926
v0
n2.4710579999999998
o44
o0
o2
n-2.33
o5
o0
v1
n-0.684
n2.0
o2
n-0.963
o5
o0
v0
n-1.283
n2.0
o2
o2
o2
o2
n-0.47575718
o5
v0
n4.0
o5
v1
n8.4
o0
o2
n-6.56
v0
n1.77776
o44
o0
o2
n-18.8
o5
o0
v1
n-1.426
n2.0
o2
n-3.28
o5
o0
v0
n-0.271
n2.0
o2
o2
o2
o2
n-0.017486824
v0
o5
v1
n6.75
o0
o2
n-29.2
v0
n27.6816
o44
o0
o2
n-547.8
o5
o0
v1
n-1.093
n2.0
o2
n-14.6
o5
o0
v0
n-0.948
n2.0
o2
o2
o2
o2
n-0.09220694
o5
v0
n2.0
o5
v1
n2.55
o0
o2
n-5.092
v0
n4.3674083999999995
o44
o0
o2
n-2.546
o5
o0
v0
n-0.8577
n2.0
o2
n-0.92
o5
o0
v1
n-1.5
n2.0
o2
o2
o2
o2
n-0.23219062
o5
v0
n2.0
o5
v1
n3.05
o0
o2
n-4.614
v0
n2.182422
o44
o0
o2
n-2.307
o5
o0
v0
n-0.473
n2.0
o2
n-3.19
o5
o0
v1
n-0.817
n2.0
O7 0
o54
51
o2
n0.68314932
o5
v1
n0.43
o2
n-0.92095796
o5
v1
n0.9
o2
o2
n1.3369459
o5
v1
n2.46
o44
o2
n-1.0
v0
o2
o2
n0.5149206119999999
v1
o5
v0
n2.0
o2
o2
n-1.20811732
o5
v1
n3.25
o44
o16
o5
v0
n2.0
o2
o2
n-0.18441388
o5
v1
n2.55
o44
o0
o2
n-2.546
o5
o0
v0
n-0.8577
n2.0
o2
n-0.92
o5
o0
v1
n-1.5
n2.0
o2
o2
n-0.46438124
o5
v1
n3.05
o44
o0
o2
n-2.307
o5
o0
v0
n-0.473
n2.0
o2
n-3.19
o5
o0
v1
n-0.817
n2.0
o2
o2
o2
n0.266722616
o5
v1
n4.62
o5
v0
n5.0
o44
o16
o5
v0
n2.0
o2
o2
o2
n0.33874242
o5
v1
n2.5
o0
o2
n-3.954
v0
n2.7424944
o44
o0
o2
n-3.47
o5
o0
v1
n-0.829
n2.0
o2
n-1.977
o5
o0
v0
n-0.6936
n2.0
o2
o2
o2
n0.40008392400000004
o5
v1
n4.62
v0
o44
o16
o5
v0
n2.0
o2
o2
o2
n5.8264143
o5
v1
n0.88
o5
v0
n4.0
o44
o2
n-1.0
v0
o2
o2
o2
n3.1209671007999997
o5
v1
n8.4
o5
v0
n4.0
o44
o0
o2
n-18.8
o5
o0
v1
n-1.426
n2.0
o2
n-3.28
o5
o0
v0
n-0.271
n2.0
o2
o2
o2
n0.22228777
o5
v1
n2.75
o0
o2
n-3.834
v0
n3.021192
o44
o0
o2
n-3.15
o5
o0
v1
n-1.419
n2.0
o2
n-1.917
o5
o0
v0
n-0.788
n2.0
o2
o2
o2
n0.5106152608000001
v0
o5
v1
n6.75
o44
o0
o2
n-547.8
o5
o0
v1
n-1.093
n2.0
o2
n-14.6
o5
o0
v0
n-0.948
n2.0
o2
o2
o2
n0.5106152608000001
o5
v1
n6.75
o0
v0
n-0.948
o44
o0
o2
n-547.8
o5
o0
v1
n-1.093
n2.0
o2
n-14.6
o5
o0
v0
n-0.948
n2.0
o2
o2
o2
n6.040586599999999
o5
v1
n3.25
o5
v0
n2.0
o44
o16
o5
v0
n2.0
o2
o2
o2
n0.19421381
o5
v1
n0.88
o5
v0
n6.0
o44
o2
n-1.0
v0
o2
o2
o2
n1.07132752068
o5
v1
n3.05
o5
v0
n2.0
o44
o0
o2
n-2.307
o5
o0
v0
n-0.473
n2.0
o2
n-3.19
o5
o0
v1
n-0.817
n2.0
o2
o2
o2
n0.017534618
o5
v1
n0.76
o0
o2
n-1.926
v0
n2.4710579999999998
o44
o0
o2
n-2.33
o5
o0
v1
n-0.684
n2.0
o2
n-0.963
o5
o0
v0
n-1.283
n2.0
o2
o2
o2
n1.2533823
o5
v1
n2.09
v0
o44
o2
n-1.0
v0
o2
o2
o2
n2.75014212
o5
v1
n1.09
o5
v0
n5.0
o44
o2
n-1.0
v0
o2
o2
o2
n0.20889705
o5
v1
n2.09
o5
v0
n3.0
o44
o2
n-1.0
v0
o2
o2
o2
n0.46951773847999995
o5
v1
n2.55
o5
v0
n2.0
o44
o0
o2
n-2.546
o5
o0
v0
n-0.8577
n2.0
o2
n-0.92
o5
o0
v1
n-1.5
n2.0
o2
o2
o2
n-0.66847295
v0
o5
v1
n2.46
o44
o2
n-1.0
v0
o2
o2
o2
n-0.22917851
o5
v1
n1.09
o5
v0
n6.0
o44
o2
n-1.0
v0
o2
o2
o2
n-0.9335291560000001
o5
v1
n4.62
o5
v0
n3.0
o44
o16
o5
v0
n2.0
o2
o2
o2
n-0.033771674268
v0
o5
v1
n0.76
o44
o0
o2
n-2.33
o5
o0
v1
n-0.684
n2.0
o2
n-0.963
o5
o0
v0
n-1.283
n2.0
o2
o2
o2
n-0.033771674268
o5
v1
n0.76
o0
v0
n-1.283
o44
o0
o2
n-2.33
o5
o0
v1
n-0.684
n2.0
o2
n-0.963
o5
o0
v0
n-1.283
n2.0
o2
o2
o2
n-2.33056572
o5
v1
n0.88
o5
v0
n5.0
o44
o2
n-1.0
v0
o2
o2
o2
n-2.41623464
o5
v1
n3.25
o5
v0
n4.0
o44
o16
o5
v0
n2.0
o2
o2
o2
n-1.33938752868
v0
o5
v1
n2.5
o44
o0
o2
n-3.47
o5
o0
v1
n-0.829
n2.0
o2
n-1.977
o5
o0
v0
n-0.6936
n2.0
o2
o2
o2
n-1.33938752868
o5
v1
n2.5
o0
v0
n-0.6936
o44
o0
o2
n-3.47
o5
o0
v1
n-0.829
n2.0
o2
n-1.977
o5
o0
v0
n-0.6936
n2.0
o2
o2
o2
n-5.70908616
o5
v1
n8.4
o5
v0
n2.0
o44
o0
o2
n-18.8
o5
o0
v1
n-1.426
n2.0
o2
n-3.28
o5
o0
v0
n-0.271
n2.0
o2
o2
o2
n-0.85225131018
v0
o5
v1
n2.75
o44
o0
o2
n-3.15
o5
o0
v1
n-1.419
n2.0
o2
n-1.917
o5
o0
v0
n-0.788
n2.0
o2
o2
o2
n-0.85225131018
o5
v1
n2.75
o0
v0
n-0.788
o44
o0
o2
n-3.15
o5
o0
v1
n-1.419
n2.0
o2
n-1.917
o5
o0
v0
n-0.788
n2.0
o2
o2
o2
n-0.017486824
o5
v1
n6.75
o0
o2
n-29.2
v0
n27.6816
o44
o0
o2
n-547.8
o5
o0
v1
n-1.093
n2.0
o2
n-14.6
o5
o0
v0
n-0.948
n2.0
o2
o2
o2
n-1.2533823
o5
v1
n2.09
o5
v0
n2.0
o44
o2
n-1.0
v0
o2
o2
o2
n-6.8753553
o5
v1
n1.09
o5
v0
n4.0
o44
o2
n-1.0
v0
o2
o2
o2
o2
n12.483868403199999
o5
v1
n8.4
o5
v0
n3.0
o0
v0
n-0.271
o44
o0
o2
n-18.8
o5
o0
v1
n-1.426
n2.0
o2
n-3.28
o5
o0
v0
n-0.271
n2.0
o2
o2
o2
o2
n2.14265504136
v0
o5
v1
n3.05
o0
v0
n-0.473
o44
o0
o2
n-2.307
o5
o0
v0
n-0.473
n2.0
o2
n-3.19
o5
o0
v1
n-0.817
n2.0
o2
o2
o2
o2
n0.9390354769599999
v0
o5
v1
n2.55
o0
v0
n-0.8577
o44
o0
o2
n-2.546
o5
o0
v0
n-0.8577
n2.0
o2
n-0.92
o5
o0
v1
n-1.5
n2.0
o2
o2
o2
o2
n-1.90302872
o5
v1
n8.4
o5
v0
n3.0
o0
o2
n-6.56
v0
n1.77776
o44
o0
o2
n-18.8
o5
o0
v1
n-1.426
n2.0
o2
n-3.28
o5
o0
v0
n-0.271
n2.0
o2
o2
o2
o2
n-0.18441388
o5
v1
n2.55
v0
o0
o2
n-5.092
v0
n4.3674083999999995
o44
o0
o2
n-2.546
o5
o0
v0
n-0.8577
n2.0
o2
n-0.92
o5
o0
v1
n-1.5
n2.0
o2
o2
o2
o2
n-0.46438124
o5
v1
n3.05
v0
o0
o2
n-4.614
v0
n2.182422
o44
o0
o2
n-2.307
o5
o0
v0
n-0.473
n2.0
o2
n-3.19
o5
o0
v1
n-0.817
n2.0
o2
o2
o2
o2
o2
n3.1209671007999997
o5
v1
n8.4
o5
v0
n4.0
o0
v0
n-0.271
o0
o2
n-6.56
v0
n1.77776
o44
o0
o2
n-18.8
o5
o0
v1
n-1.426
n2.0
o2
n-3.28
o5
o0
v0
n-0.271
n2.0
o2
o2
o2
o2
o2
n0.5106152608000001
v0
o5
v1
n6.75
o0
v0
n-0.948
o0
o2
n-29.2
v0
n27.6816
o44
o0
o2
n-547.8
o5
o0
v1
n-1.093
n2.0
o2
n-14.6
o5
o0
v0
n-0.948
n2.0
o2
o2
o2
o2
o2
n1.07132752068
o5
v1
n3.05
o5
v0
n2.0
o0
v0
n-0.473
o0
o2
n-4.614
v0
n2.182422
o44
o0
o2
n-2.307
o5
o0
v0
n-0.473
n2.0
o2
n-3.19
o5
o0
v1
n-0.817
n2.0
o2
o2
o2
o2
o2
n0.46951773847999995
o5
v1
n2.55
o5
v0
n2.0
o0
v0
n-0.8577
o0
o2
n-5.092
v0
n4.3674083999999995
o44
o0
o2
n-2.546
o5
o0
v0
n-0.8577
n2.0
o2
n-0.92
o5
o0
v1
n-1.5
n2.0
o2
o2
o2
o2
o2
n-0.033771674268
v0
o5
v1
n0.76
o0
v0
n-1.283
o0
o2
n-1.926
v0
n2.4710579999999998
o44
o0
o2
n-2.33
o5
o0
v1
n-0.684
n2.0
o2
n-0.963
o5
o0
v0
n-1.283
n2.0
o2
o2
o2
o2
o2
n-1.33938752868
v0
o5
v1
n2.5
o0
v0
n-0.6936
o0
o2
n-3.954
v0
n2.7424944
o44
o0
o2
n-3.47
o5
o0
v1
n-0.829
n2.0
o2
n-1.977
o5
o0
v0
n-0.6936
n2.0
o2
o2
o2
o2
o2
n-0.85225131018
v0
o5
v1
n2.75
o0
v0
n-0.788
o0
o2
n-3.834
v0
n3.021192
o44
o0
o2
n-3.15
o5
o0
v1
n-1.419
n2.0
o2
n-1.917
o5
o0
v0
n-0.788
n2.0
O8 0
o54
25
o2
n0.042910051
o5
v0
n4.0
o2
o2
n0.571351143
v0
o5
v1
n-0.6699999999999999
o2
o2
n0.1468771038
o5
v0
n2.0
o5
v1
n-0.5700000000000001
o2
o2
n-0.414431082
o5
v0
n2.0
o5
v1
n-0.09999999999999998
o2
o2
n-1.96132192
v0
o5
v1
n-0.19999999999999996
o2
o2
o2
n0.30806462148
o5
v0
n3.0
o5
v1
n3.62
o44
o16
o5
v0
n2.0
o2
o2
o2
n0.84685605
v0
o5
v1
n1.5
o44
o0
o2
n-3.47
o5
o0
v1
n-0.829
n2.0
o2
n-1.977
o5
o0
v0
n-0.6936
n2.0
o2
o2
o2
n0.6112913675
v0
o5
v1
n1.75
o44
o0
o2
n-3.15
o5
o0
v1
n-1.419
n2.0
o2
n-1.917
o5
o0
v0
n-0.788
n2.0
o2
o2
o2
n0.1709081528
o5
v0
n6.0
o5
v1
n-0.12
o44
o2
n-1.0
v0
o2
o2
o2
n0.013326309679999999
v0
o5
v1
n-0.24
o44
o0
o2
n-2.33
o5
o0
v1
n-0.684
n2.0
o2
n-0.963
o5
o0
v0
n-1.283
n2.0
o2
o2
o2
n0.4365948345
o5
v0
n3.0
o5
v1
n1.0899999999999999
o44
o2
n-1.0
v0
o2
o2
o2
n-3.996360312
o5
v0
n4.0
o5
v1
n7.4
o44
o0
o2
n-18.8
o5
o0
v1
n-1.426
n2.0
o2
n-3.28
o5
o0
v0
n-0.271
n2.0
o2
o2
o2
n-0.7081813909999999
o5
v0
n2.0
o5
v1
n2.05
o44
o0
o2
n-2.307
o5
o0
v0
n-0.473
n2.0
o2
n-3.19
o5
o0
v1
n-0.817
n2.0
o2
o2
o2
n-1.644443457
v0
o5
v1
n1.46
o44
o2
n-1.0
v0
o2
o2
o2
n-0.235127697
o5
v0
n2.0
o5
v1
n1.5499999999999998
o44
o0
o2
n-2.546
o5
o0
v0
n-0.8577
n2.0
o2
n-0.92
o5
o0
v1
n-1.5
n2.0
o2
o2
o2
n-0.11803606200000001
v0
o5
v1
n5.75
o44
o0
o2
n-547.8
o5
o0
v1
n-1.093
n2.0
o2
n-14.6
o5
o0
v0
n-0.948
n2.0
o2
o2
o2
n-1.9631906449999998
o5
v0
n2.0
o5
v1
n2.25
o44
o16
o5
v0
n2.0
o2
o2
o2
n-0.24980457590000002
o5
v0
n6.0
o5
v1
n0.09000000000000008
o44
o2
n-1.0
v0
o2
o2
o2
o2
n0.33874242
v0
o5
v1
n2.5
o0
o2
n-6.94
v1
n5.75326
o44
o0
o2
n-3.47
o5
o0
v1
n-0.829
n2.0
o2
n-1.977
o5
o0
v0
n-0.6936
n2.0
o2
o2
o2
o2
n0.22228777
v0
o5
v1
n2.75
o0
o2
n-6.3
v1
n8.9397
o44
o0
o2
n-3.15
o5
o0
v1
n-1.419
n2.0
o2
n-1.917
o5
o0
v0
n-0.788
n2.0
o2
o2
o2
o2
n0.017534618
v0
o5
v1
n0.76
o0
o2
n-4.66
v1
n3.1874400000000005
o44
o0
o2
n-2.33
o5
o0
v1
n-0.684
n2.0
o2
n-0.963
o5
o0
v0
n-1.283
n2.0
o2
o2
o2
o2
n-0.47575718
o5
v0
n4.0
o5
v1
n8.4
o0
o2
n-37.6
v1
n53.6176
o44
o0
o2
n-18.8
o5
o0
v1
n-1.426
n2.0
o2
n-3.28
o5
o0
v0
n-0.271
n2.0
o2
o2
o2
o2
n-0.017486824
v0
o5
v1
n6.75
o0
o2
n-1095.6
v1
n1197.4907999999998
o44
o0
o2
n-547.8
o5
o0
v1
n-1.093
n2.0
o2
n-14.6
o5
o0
v0
n-0.948
n2.0
o2
o2
o2
o2
n-0.09220694
o5
v0
n2.0
o5
v1
n2.55
o0
o2
n-1.84
v1
n2.7600000000000002
o44
o0
o2
n-2.546
o5
o0
v0
n-0.8577
n2.0
o2
n-0.92
o5
o0
v1
n-1.5
n2.0
o2
o2
o2
o2
n-0.23219062
o5
v0
n2.0
o5
v1
n3.05
o0
o2
n-6.38
v1
n5.212459999999999
o44
o0
o2
n-2.307
o5
o0
v0
n-0.473
n2.0
o2
n-3.19
o5
o0
v1
n-0.817
n2.0
O9 0
o54
45
o2
o2
n0.04144310819999999
o5
v0
n2.0
o5
v1
n-1.1
o2
o2
n0.3922643839999999
v0
o5
v1
n-1.2
o2
o2
n-0.08371994916600001
o5
v0
n2.0
o5
v1
n-1.57
o2
o2
n-0.38280526580999996
v0
o5
v1
n-1.67
o2
o2
o2
n1.069759893125
v0
o5
v1
n0.75
o44
o0
o2
n-3.15
o5
o0
v1
n-1.419
n2.0
o2
n-1.917
o5
o0
v0
n-0.788
n2.0
o2
o2
o2
n19.1585643744
v0
o5
v1
n6.75
o44
o0
o2
n-547.8
o5
o0
v1
n-1.093
n2.0
o2
n-14.6
o5
o0
v0
n-0.948
n2.0
o2
o2
o2
n0.4758883696049999
o5
v0
n3.0
o5
v1
n0.08999999999999986
o44
o2
n-1.0
v0
o2
o2
o2
n1.1151939297576001
o5
v0
n3.0
o5
v1
n2.62
o44
o16
o5
v0
n2.0
o2
o2
o2
n17.888469968
o5
v0
n4.0
o5
v1
n8.4
o44
o0
o2
n-18.8
o5
o0
v1
n-1.426
n2.0
o2
n-3.28
o5
o0
v0
n-0.271
n2.0
o2
o2
o2
n1.270284075
v0
o5
v1
n0.5
o44
o0
o2
n-3.47
o5
o0
v1
n-0.829
n2.0
o2
n-1.977
o5
o0
v0
n-0.6936
n2.0
o2
o2
o2
n0.1696607696
o5
v0
n2.0
o5
v1
n2.55
o44
o0
o2
n-2.546
o5
o0
v0
n-0.8577
n2.0
o2
n-0.92
o5
o0
v1
n-1.5
n2.0
o2
o2
o2
n1.4813761555999998
o5
v0
n2.0
o5
v1
n3.05
o44
o0
o2
n-2.307
o5
o0
v0
n-0.473
n2.0
o2
n-3.19
o5
o0
v1
n-0.817
n2.0
o2
o2
o2
n-1.4004129509999999
v0
o5
v1
n2.75
o44
o0
o2
n-3.15
o5
o0
v1
n-1.419
n2.0
o2
n-1.917
o5
o0
v0
n-0.788
n2.0
o2
o2
o2
n-4.4171789512499995
o5
v0
n2.0
o5
v1
n1.25
o44
o16
o5
v0
n2.0
o2
o2
o2
n-2.4008874472199997
v0
o5
v1
n0.45999999999999996
o44
o2
n-1.0
v0
o2
o2
o2
n-0.08171131988
v0
o5
v1
n0.76
o44
o0
o2
n-2.33
o5
o0
v1
n-0.684
n2.0
o2
n-0.963
o5
o0
v0
n-1.283
n2.0
o2
o2
o2
n-0.0031983143231999996
v0
o5
v1
n-1.24
o44
o0
o2
n-2.33
o5
o0
v1
n-0.684
n2.0
o2
n-0.963
o5
o0
v0
n-1.283
n2.0
o2
o2
o2
n-29.5730663088
o5
v0
n4.0
o5
v1
n6.4
o44
o0
o2
n-18.8
o5
o0
v1
n-1.426
n2.0
o2
n-3.28
o5
o0
v0
n-0.271
n2.0
o2
o2
o2
n-2.3508723948
v0
o5
v1
n2.5
o44
o0
o2
n-3.47
o5
o0
v1
n-0.829
n2.0
o2
n-1.977
o5
o0
v0
n-0.6936
n2.0
o2
o2
o2
n-0.020508978336
o5
v0
n6.0
o5
v1
n-1.12
o44
o2
n-1.0
v0
o2
o2
o2
n-0.6787073565
v0
o5
v1
n4.75
o44
o0
o2
n-547.8
o5
o0
v1
n-1.093
n2.0
o2
n-14.6
o5
o0
v0
n-0.948
n2.0
o2
o2
o2
n-0.022482411831000023
o5
v0
n6.0
o5
v1
n-0.9099999999999999
o44
o2
n-1.0
v0
o2
o2
o2
n-1.4517718515499995
o5
v0
n2.0
o5
v1
n1.0499999999999998
o44
o0
o2
n-2.307
o5
o0
v0
n-0.473
n2.0
o2
n-3.19
o5
o0
v1
n-0.817
n2.0
o2
o2
o2
n-0.36444793034999995
o5
v0
n2.0
o5
v1
n0.5499999999999998
o44
o0
o2
n-2.546
o5
o0
v0
n-0.8577
n2.0
o2
n-0.92
o5
o0
v1
n-1.5
n2.0
o2
o2
o2
o2
n0.84685605
v0
o5
v1
n1.5
o0
o2
n-6.94
v1
n5.75326
o44
o0
o2
n-3.47
o5
o0
v1
n-0.829
n2.0
o2
n-1.977
o5
o0
v0
n-0.6936
n2.0
o2
o2
o2
o2
n0.6112913675
v0
o5
v1
n1.75
o0
o2
n-6.3
v1
n8.9397
o44
o0
o2
n-3.15
o5
o0
v1
n-1.419
n2.0
o2
n-1.917
o5
o0
v0
n-0.788
n2.0
o2
o2
o2
o2
n0.013326309679999999
v0
o5
v1
n-0.24
o0
o2
n-4.66
v1
n3.1874400000000005
o44
o0
o2
n-2.33
o5
o0
v1
n-0.684
n2.0
o2
n-0.963
o5
o0
v0
n-1.283
n2.0
o2
o2
o2
o2
n0.43263496248
o5
v0
n2.0
o5
v1
n1.5499999999999998
o0
v1
n-1.5
o44
o0
o2
n-2.546
o5
o0
v0
n-0.8577
n2.0
o2
n-0.92
o5
o0
v1
n-1.5
n2.0
o2
o2
o2
o2
n129.3203095272
v0
o5
v1
n5.75
o0
v1
n-1.093
o44
o0
o2
n-547.8
o5
o0
v1
n-1.093
n2.0
o2
n-14.6
o5
o0
v0
n-0.948
n2.0
o2
o2
o2
o2
n4.518197274579999
o5
v0
n2.0
o5
v1
n2.05
o0
v1
n-0.817
o44
o0
o2
n-2.307
o5
o0
v0
n-0.473
n2.0
o2
n-3.19
o5
o0
v1
n-0.817
n2.0
o2
o2
o2
o2
n150.2631477312
o5
v0
n4.0
o5
v1
n7.4
o0
v1
n-1.426
o44
o0
o2
n-18.8
o5
o0
v1
n-1.426
n2.0
o2
n-3.28
o5
o0
v0
n-0.271
n2.0
o2
o2
o2
o2
n-3.996360312
o5
v0
n4.0
o5
v1
n7.4
o0
o2
n-37.6
v1
n53.6176
o44
o0
o2
n-18.8
o5
o0
v1
n-1.426
n2.0
o2
n-3.28
o5
o0
v0
n-0.271
n2.0
o2
o2
o2
o2
n-0.7081813909999999
o5
v0
n2.0
o5
v1
n2.05
o0
o2
n-6.38
v1
n5.212459999999999
o44
o0
o2
n-2.307
o5
o0
v0
n-0.473
n2.0
o2
n-3.19
o5
o0
v1
n-0.817
n2.0
o2
o2
o2
o2
n-5.877180987
v0
o5
v1
n1.5
o0
v1
n-0.829
o44
o0
o2
n-3.47
o5
o0
v1
n-0.829
n2.0
o2
n-1.977
o5
o0
v0
n-0.6936
n2.0
o2
o2
o2
o2
n-0.235127697
o5
v0
n2.0
o5
v1
n1.5499999999999998
o0
o2
n-1.84
v1
n2.7600000000000002
o44
o0
o2
n-2.546
o5
o0
v0
n-0.8577
n2.0
o2
n-0.92
o5
o0
v1
n-1.5
n2.0
o2
o2
o2
o2
n-0.11803606200000001
v0
o5
v1
n5.75
o0
o2
n-1095.6
v1
n1197.4907999999998
o44
o0
o2
n-547.8
o5
o0
v1
n-1.093
n2.0
o2
n-14.6
o5
o0
v0
n-0.948
n2.0
o2
o2
o2
o2
n-3.85113561525
v0
o5
v1
n1.75
o0
v1
n-1.419
o44
o0
o2
n-3.15
o5
o0
v1
n-1.419
n2.0
o2
n-1.917
o5
o0
v0
n-0.788
n2.0
o2
o2
o2
o2
n-0.062100603108799994
v0
o5
v1
n-0.24
o0
v1
n-0.684
o44
o0
o2
n-2.33
o5
o0
v1
n-0.684
n2.0
o2
n-0.963
o5
o0
v0
n-1.283
n2.0
o2
o2
o2
o2
o2
n19.1585643744
v0
o5
v1
n6.75
o0
v1
n-1.093
o0
o2
n-1095.6
v1
n1197.4907999999998
o44
o0
o2
n-547.8
o5
o0
v1
n-1.093
n2.0
o2
n-14.6
o5
o0
v0
n-0.948
n2.0
o2
o2
o2
o2
o2
n17.888469968
o5
v0
n4.0
o5
v1
n8.4
o0
v1
n-1.426
o0
o2
n-37.6
v1
n53.6176
o44
o0
o2
n-18.8
o5
o0
v1
n-1.426
n2.0
o2
n-3.28
o5
o0
v0
n-0.271
n2.0
o2
o2
o2
o2
o2
n0.1696607696
o5
v0
n2.0
o5
v1
n2.55
o0
v1
n-1.5
o0
o2
n-1.84
v1
n2.7600000000000002
o44
o0
o2
n-2.546
o5
o0
v0
n-0.8577
n2.0
o2
n-0.92
o5
o0
v1
n-1.5
n2.0
o2
o2
o2
o2
o2
n1.4813761555999998
o5
v0
n2.0
o5
v1
n3.05
o0
v1
n-0.817
o0
o2
n-6.38
v1
n5.212459999999999
o44
o0
o2
n-2.307
o5
o0
v0
n-0.473
n2.0
o2
n-3.19
o5
o0
v1
n-0.817
n2.0
o2
o2
o2
o2
o2
n-1.4004129509999999
v0
o5
v1
n2.75
o0
v1
n-1.419
o0
o2
n-6.3
v1
n8.9397
o44
o0
o2
n-3.15
o5
o0
v1
n-1.419
n2.0
o2
n-1.917
o5
o0
v0
n-0.788
n2.0
o2
o2
o2
o2
o2
n-0.08171131988
v0
o5
v1
n0.76
o0
v1
n-0.684
o0
o2
n-4.66
v1
n3.1874400000000005
o44
o0
o2
n-2.33
o5
o0
v1
n-0.684
n2.0
o2
n-0.963
o5
o0
v0
n-1.283
n2.0
o2
o2
o2
o2
o2
n-2.3508723948
v0
o5
v1
n2.5
o0
v1
n-0.829
o0
o2
n-6.94
v1
n5.75326
o44
o0
o2
n-3.47
o5
o0
v1
n-0.829
n2.0
o2
n-1.977
o5
o0
v0
n-0.6936
n2.0
O10 0
o54
45
o2
n0.571351143
o5
v1
n-0.6699999999999999
o2
n0.171640204
o5
v0
n3.0
o2
n-1.96132192
o5
v1
n-0.19999999999999996
o2
o2
n0.84685605
o5
v1
n1.5
o44
o0
o2
n-3.47
o5
o0
v1
n-0.829
n2.0
o2
n-1.977
o5
o0
v0
n-0.6936
n2.0
o2
o2
n0.6112913675
o5
v1
n1.75
o44
o0
o2
n-3.15
o5
o0
v1
n-1.419
n2.0
o2
n-1.917
o5
o0
v0
n-0.788
n2.0
o2
o2
n0.013326309679999999
o5
v1
n-0.24
o44
o0
o2
n-2.33
o5
o0
v1
n-0.684
n2.0
o2
n-0.963
o5
o0
v0
n-1.283
n2.0
o2
o2
n0.2937542076
v0
o5
v1
n-0.5700000000000001
o2
o2
n-1.644443457
o5
v1
n1.46
o44
o2
n-1.0
v0
o2
o2
n-0.828862164
v0
o5
v1
n-0.09999999999999998
o2
o2
n-0.11803606200000001
o5
v1
n5.75
o44
o0
o2
n-547.8
o5
o0
v1
n-1.093
n2.0
o2
n-14.6
o5
o0
v0
n-0.948
n2.0
o2
o2
o2
n19.1585643744
o5
v1
n6.75
o0
v1
n-1.093
o44
o0
o2
n-547.8
o5
o0
v1
n-1.093
n2.0
o2
n-14.6
o5
o0
v0
n-0.948
n2.0
o2
o2
o2
n1.644443457
v0
o5
v1
n1.46
o44
o2
n-1.0
v0
o2
o2
o2
n0.9241938644400001
o5
v1
n3.62
o5
v0
n2.0
o44
o16
o5
v0
n2.0
o2
o2
o2
n1.0254489168
o5
v1
n-0.12
o5
v0
n5.0
o44
o2
n-1.0
v0
o2
o2
o2
n1.3097845034999998
o5
v1
n1.0899999999999999
o5
v0
n2.0
o44
o2
n-1.0
v0
o2
o2
o2
n3.9263812899999997
o5
v1
n2.25
o5
v0
n3.0
o44
o16
o5
v0
n2.0
o2
o2
o2
n0.24980457590000002
o5
v1
n0.09000000000000008
o5
v0
n6.0
o44
o2
n-1.0
v0
o2
o2
o2
n-1.4004129509999999
o5
v1
n2.75
o0
v1
n-1.419
o44
o0
o2
n-3.15
o5
o0
v1
n-1.419
n2.0
o2
n-1.917
o5
o0
v0
n-0.788
n2.0
o2
o2
o2
n-15.985441248
o5
v1
n7.4
o5
v0
n3.0
o44
o0
o2
n-18.8
o5
o0
v1
n-1.426
n2.0
o2
n-3.28
o5
o0
v0
n-0.271
n2.0
o2
o2
o2
n-0.61612924296
o5
v1
n3.62
o5
v0
n4.0
o44
o16
o5
v0
n2.0
o2
o2
o2
n-0.08171131988
o5
v1
n0.76
o0
v1
n-0.684
o44
o0
o2
n-2.33
o5
o0
v1
n-0.684
n2.0
o2
n-0.963
o5
o0
v0
n-1.283
n2.0
o2
o2
o2
n-0.1709081528
o5
v1
n-0.12
o5
v0
n6.0
o44
o2
n-1.0
v0
o2
o2
o2
n-1.4163627819999998
v0
o5
v1
n2.05
o44
o0
o2
n-2.307
o5
o0
v0
n-0.473
n2.0
o2
n-3.19
o5
o0
v1
n-0.817
n2.0
o2
o2
o2
n-2.3508723948
o5
v1
n2.5
o0
v1
n-0.829
o44
o0
o2
n-3.47
o5
o0
v1
n-0.829
n2.0
o2
n-1.977
o5
o0
v0
n-0.6936
n2.0
o2
o2
o2
n-1.4988274554
o5
v1
n0.09000000000000008
o5
v0
n5.0
o44
o2
n-1.0
v0
o2
o2
o2
n-0.4365948345
o5
v1
n1.0899999999999999
o5
v0
n3.0
o44
o2
n-1.0
v0
o2
o2
o2
n-0.470255394
v0
o5
v1
n1.5499999999999998
o44
o0
o2
n-2.546
o5
o0
v0
n-0.8577
n2.0
o2
n-0.92
o5
o0
v1
n-1.5
n2.0
o2
o2
o2
n-3.9263812899999997
v0
o5
v1
n2.25
o44
o16
o5
v0
n2.0
o2
o2
o2
o2
n0.84685605
v0
o5
v1
n1.5
o0
o2
n-3.954
v0
n2.7424944
o44
o0
o2
n-3.47
o5
o0
v1
n-0.829
n2.0
o2
n-1.977
o5
o0
v0
n-0.6936
n2.0
o2
o2
o2
o2
n0.6112913675
v0
o5
v1
n1.75
o0
o2
n-3.834
v0
n3.021192
o44
o0
o2
n-3.15
o5
o0
v1
n-1.419
n2.0
o2
n-1.917
o5
o0
v0
n-0.788
n2.0
o2
o2
o2
o2
n0.013326309679999999
v0
o5
v1
n-0.24
o0
o2
n-1.926
v0
n2.4710579999999998
o44
o0
o2
n-2.33
o5
o0
v1
n-0.684
n2.0
o2
n-0.963
o5
o0
v0
n-1.283
n2.0
o2
o2
o2
o2
n71.553879872
o5
v1
n8.4
o5
v0
n3.0
o0
v1
n-1.426
o44
o0
o2
n-18.8
o5
o0
v1
n-1.426
n2.0
o2
n-3.28
o5
o0
v0
n-0.271
n2.0
o2
o2
o2
o2
n0.3393215392
v0
o5
v1
n2.55
o0
v1
n-1.5
o44
o0
o2
n-2.546
o5
o0
v0
n-0.8577
n2.0
o2
n-0.92
o5
o0
v1
n-1.5
n2.0
o2
o2
o2
o2
n2.9627523111999996
v0
o5
v1
n3.05
o0
v1
n-0.817
o44
o0
o2
n-2.307
o5
o0
v0
n-0.473
n2.0
o2
n-3.19
o5
o0
v1
n-0.817
n2.0
o2
o2
o2
o2
n-3.996360312
o5
v1
n7.4
o5
v0
n4.0
o0
o2
n-6.56
v0
n1.77776
o44
o0
o2
n-18.8
o5
o0
v1
n-1.426
n2.0
o2
n-3.28
o5
o0
v0
n-0.271
n2.0
o2
o2
o2
o2
n-0.7081813909999999
o5
v1
n2.05
o5
v0
n2.0
o0
o2
n-4.614
v0
n2.182422
o44
o0
o2
n-2.307
o5
o0
v0
n-0.473
n2.0
o2
n-3.19
o5
o0
v1
n-0.817
n2.0
o2
o2
o2
o2
n-0.235127697
o5
v1
n1.5499999999999998
o5
v0
n2.0
o0
o2
n-5.092
v0
n4.3674083999999995
o44
o0
o2
n-2.546
o5
o0
v0
n-0.8577
n2.0
o2
n-0.92
o5
o0
v1
n-1.5
n2.0
o2
o2
o2
o2
n-0.11803606200000001
v0
o5
v1
n5.75
o0
o2
n-29.2
v0
n27.6816
o44
o0
o2
n-547.8
o5
o0
v1
n-1.093
n2.0
o2
n-14.6
o5
o0
v0
n-0.948
n2.0
o2
o2
o2
o2
o2
n19.1585643744
v0
o5
v1
n6.75
o0
v1
n-1.093
o0
o2
n-29.2
v0
n27.6816
o44
o0
o2
n-547.8
o5
o0
v1
n-1.093
n2.0
o2
n-14.6
o5
o0
v0
n-0.948
n2.0
o2
o2
o2
o2
o2
n17.888469968
o5
v1
n8.4
o5
v0
n4.0
o0
v1
n-1.426
o0
o2
n-6.56
v0
n1.77776
o44
o0
o2
n-18.8
o5
o0
v1
n-1.426
n2.0
o2
n-3.28
o5
o0
v0
n-0.271
n2.0
o2
o2
o2
o2
o2
n0.1696607696
o5
v1
n2.55
o5
v0
n2.0
o0
v1
n-1.5
o0
o2
n-5.092
v0
n4.3674083999999995
o44
o0
o2
n-2.546
o5
o0
v0
n-0.8577
n2.0
o2
n-0.92
o5
o0
v1
n-1.5
n2.0
o2
o2
o2
o2
o2
n1.4813761555999998
o5
v1
n3.05
o5
v0
n2.0
o0
v1
n-0.817
o0
o2
n-4.614
v0
n2.182422
o44
o0
o2
n-2.307
o5
o0
v0
n-0.473
n2.0
o2
n-3.19
o5
o0
v1
n-0.817
n2.0
o2
o2
o2
o2
o2
n-1.4004129509999999
v0
o5
v1
n2.75
o0
v1
n-1.419
o0
o2
n-3.834
v0
n3.021192
o44
o0
o2
n-3.15
o5
o0
v1
n-1.419
n2.0
o2
n-1.917
o5
o0
v0
n-0.788
n2.0
o2
o2
o2
o2
o2
n-0.08171131988
v0
o5
v1
n0.76
o0
v1
n-0.684
o0
o2
n-1.926
v0
n2.4710579999999998
o44
o0
o2
n-2.33
o5
o0
v1
n-0.684
n2.0
o2
n-0.963
o5
o0
v0
n-1.283
n2.0
o2
o2
o2
o2
o2
n-2.3508723948
v0
o5
v1
n2.5
o0
v1
n-0.829
o0
o2
n-3.954
v0
n2.7424944
o44
o0
o2
n-3.47
o5
o0
v1
n-0.829
n2.0
o2
n-1.977
o5
o0
v0
n-0.6936
n2.0
O11 0
o0
o54
4
o2
n1.82205
o5
o0
o16
o3
n1
v1
n1
n0.345
o2
n0.65802
o5
o0
o16
o3
n1
v1
n1
n0.74
o2
n0.21109
o5
o0
o16
o3
n1
v1
n1
n2.6
o2
n0.083973
o5
o0
o16
o3
n1
v1
n1
n7.2
n1.0
O12 0
o44
o54
6
o2
n-2.4887
o5
o0
o16
o3
n1
v1
n1
n0.3785
o2
n-5.1069
o5
o0
o16
o3
n1
v1
n1
n1.07
o2
n-12.174
o5
o0
o16
o3
n1
v1
n1
n2.7
o2
n-30.495
o5
o0
o16
o3
n1
v1
n1
n5.5
o2
n-52.192
o5
o0
o16
o3
n1
v1
n1
n10.0
o2
n-134.89
o5
o0
o16
o3
n1
v1
n1
n20.0
O13 0
n0.0
x2
0 1.00000001
1 1.0
r
b
3
3
k1
0
G0 2
0 0
1 4.29352
G1 1
0 0
G2 1
0 0
G3 1
1 0
G4 1
1 0
G5 2
0 0
1 0
G6 2
0 0
1 0
G7 2
0 0
1 0
G8 2
0 0
1 0
G9 2
0 0
1 0
G10 2
0 0
1 0
G11 1
1 0
G12 1
1 0
